NAME: part7
TYPE: TSP
COMMENT: Generated by WriteTSPProblem
DIMENSION: 7
EDGE_WEIGHT_TYPE: EUC_3D
NODE_COORD_SECTION
1 -163.390224 -218.200000 -44.790000
2 -205.173417 -218.200000 -44.790000
3 -205.173417 -181.660000 -44.790000
4 132.296517 -59.662087 -44.790000
5 132.296517 -9.839659 -44.790000
6 87.205080 -59.662087 -44.790000
7 87.205080 -9.839659 -44.790000
EOF